

*************************************************************

   NEOS Server Version 6.0
   Job#     : 18275670
   Password : yNTtOXir
   User     : 
   Solver   : milp:Gurobi:AMPL
   Start    : 2026-01-24 11:52:10
   End      : 2026-01-24 11:52:20
   Host     : prod-sub-1.neos-server.org

   Disclaimer:

   This information is provided without any express or
   implied warranty. In particular, there is no warranty
   of any kind concerning the fitness of this
   information for any particular purpose.

   Announcements:
*************************************************************
You are using the solver gurobi_ampl.
Checking ampl.mod for gurobi_options...
Checking ampl.com for gurobi_options...
Executing AMPL.
processing data.
processing commands.
Executing on prod-exec-6.neos-server.org
given [*,*]
:   1   2   3   4   5   6   7   8   9    :=
1   1   0   0   9   0   2   0   0   3
2   6   7   3   0   8   5   0   9   0
3   0   0   8   0   7   0   6   1   5
4   0   0   0   7   5   0   0   6   0
5   5   1   7   4   9   0   3   2   8
6   9   0   0   0   0   0   4   0   0
7   0   0   2   0   3   1   0   4   9
8   0   8   0   0   0   0   0   7   2
9   4   0   0   0   0   0   0   3   0
;


"option presolve 0;" used, but "option presolve 10;" might work better.
729 variables, all binary
362 constraints, all linear; 2954 nonzeros
	362 equality constraints
1 linear objective; 0 nonzeros.

Gurobi 12.0.3:   tech:threads = 4
  pre:solve = 2
  alg:iisfind = 1
Set parameter LogToConsole to value 1
  tech:outlev = 1

AMPL MP initial flat model has 729 variables (38 integer, 691 binary);
Objectives: 1 linear; 
Constraints:  362 linear;

AMPL MP final model has 729 variables (38 integer, 691 binary);
Objectives: 1 linear; 
Constraints:  362 linear;


Set parameter InfUnbdInfo to value 1
Gurobi Optimizer version 12.0.3 build v12.0.3rc0 (linux64 - "Rocky Linux 8.10 (Green Obsidian)")

CPU model: Intel(R) Xeon(R) Gold 6140 CPU @ 2.30GHz, instruction set [SSE2|AVX|AVX2|AVX512]
Thread count: 36 physical cores, 72 logical processors, using up to 4 threads

Non-default parameters:
InfUnbdInfo  1
Presolve  2
Threads  4

Optimize a model with 362 rows, 729 columns and 2954 nonzeros
Model fingerprint: 0xdda0854f
Variable types: 38 continuous, 691 integer (0 binary)
Coefficient statistics:
  Matrix range     [1e+00, 1e+00]
  Objective range  [0e+00, 0e+00]
  Bounds range     [1e+00, 1e+00]
  RHS range        [1e+00, 1e+00]
Presolve removed 362 rows and 729 columns
Presolve time: 0.00s
Presolve: All rows and columns removed

Explored 0 nodes (0 simplex iterations) in 0.00 seconds (0.00 work units)
Thread count was 1 (of 72 available processors)

Solution count 1: 0 

Optimal solution found (tolerance 1.00e-04)
Best objective 0.000000000000e+00, best bound 0.000000000000e+00, gap 0.0000%
Gurobi 12.0.3: optimal solution; objective 0
0 simplex iterations

Sudoku Solution
===============
    1  2  3  4  5  6  7  8  9 
 1  1  4  5  9  6  2  7  8  3 
 2  6  7  3  1  8  5  2  9  4 
 3  2  9  8  3  7  4  6  1  5 
 4  8  2  4  7  5  3  9  6  1 
 5  5  1  7  4  9  6  3  2  8 
 6  9  3  6  2  1  8  4  5  7 
 7  7  6  2  5  3  1  8  4  9 
 8  3  8  1  6  4  9  5  7  2 
 9  4  5  9  8  2  7  1  3  6 

NEOS Server Home
